NAME : n80w200.005.621.tour
COMMENT : Length = 621
COMMENT : Found by LKH [Keld Helsgaun] Tue Nov  7 19:45:11 2017
TYPE : TOUR
DIMENSION : 81
TOUR_SECTION
1
58
46
51
44
16
26
12
34
20
50
73
31
40
39
77
67
37
2
15
78
19
60
75
47
61
80
6
74
45
9
53
48
62
70
65
17
43
24
21
8
7
49
32
54
18
63
13
55
28
59
25
72
29
22
10
33
35
23
79
52
14
68
5
76
64
4
3
66
41
56
71
30
11
38
69
27
36
81
42
57
-1
EOF
